benchmarks_CP/INST_49x49/50/inst49x49_50_56.dzn
S=7;
start=[|
-1,	-1,	46,	-1,	-1,	6,	16,	-1,	4,	11,	23,	49,	28,	-1,	-1,	29,	15,	10,	-1,	43,	17,	42,	-1,	-1,	-1,	-1,	24,	30,	36,	13,	19,	39,	-1,	-1,	22,	-1,	-1,	-1,	-1,	47,	-1,	44,	-1,	-1,	-1,	-1,	26,	-1,	-1|
48,	33,	-1,	-1,	-1,	-1,	-1,	-1,	19,	30,	2,	36,	44,	-1,	27,	16,	26,	-1,	-1,	23,	-1,	29,	-1,	35,	-1,	45,	14,	15,	-1,	47,	-1,	10,	-1,	-1,	40,	38,	-1,	-1,	6,	8,	-1,	-1,	-1,	-1,	49,	25,	-1,	-1,	13|
4,	-1,	-1,	-1,	34,	43,	-1,	37,	-1,	46,	8,	-1,	-1,	39,	13,	30,	-1,	-1,	24,	-1,	6,	-1,	-1,	44,	-1,	-1,	25,	-1,	42,	-1,	-1,	-1,	11,	-1,	-1,	-1,	27,	10,	-1,	-1,	26,	-1,	-1,	-1,	-1,	28,	-1,	32,	7|
29,	36,	-1,	-1,	-1,	18,	-1,	43,	-1,	15,	-1,	-1,	-1,	-1,	-1,	-1,	-1,	-1,	47,	-1,	22,	4,	8,	17,	49,	-1,	34,	46,	23,	27,	5,	1,	31,	24,	2,	48,	-1,	-1,	-1,	-1,	14,	11,	16,	-1,	3,	-1,	19,	21,	-1|
25,	17,	42,	-1,	13,	-1,	30,	32,	14,	-1,	-1,	35,	27,	-1,	1,	-1,	-1,	12,	-1,	-1,	11,	28,	-1,	16,	-1,	37,	26,	-1,	-1,	48,	-1,	29,	-1,	-1,	49,	34,	15,	-1,	-1,	-1,	33,	4,	-1,	23,	-1,	8,	40,	18,	-1|
-1,	-1,	22,	-1,	40,	39,	47,	48,	20,	18,	17,	12,	-1,	38,	-1,	-1,	3,	19,	-1,	46,	-1,	-1,	-1,	27,	-1,	6,	11,	32,	-1,	30,	-1,	34,	-1,	-1,	-1,	24,	49,	28,	36,	13,	-1,	-1,	-1,	15,	-1,	41,	44,	-1,	43|
15,	-1,	-1,	-1,	44,	-1,	20,	-1,	-1,	26,	-1,	-1,	-1,	-1,	42,	-1,	-1,	-1,	-1,	-1,	-1,	-1,	36,	43,	-1,	-1,	-1,	-1,	7,	-1,	-1,	-1,	-1,	12,	-1,	21,	19,	-1,	16,	-1,	-1,	-1,	-1,	33,	30,	39,	-1,	-1,	-1|
21,	-1,	13,	16,	-1,	-1,	-1,	6,	-1,	25,	-1,	43,	-1,	44,	34,	-1,	7,	24,	46,	-1,	-1,	-1,	-1,	45,	-1,	-1,	38,	1,	-1,	2,	31,	-1,	-1,	10,	29,	20,	-1,	4,	49,	-1,	39,	-1,	-1,	35,	42,	9,	-1,	47,	15|
18,	5,	-1,	-1,	33,	38,	46,	-1,	-1,	7,	3,	-1,	-1,	-1,	-1,	-1,	-1,	43,	-1,	-1,	-1,	-1,	29,	30,	-1,	-1,	-1,	-1,	39,	45,	36,	-1,	1,	-1,	13,	-1,	35,	9,	28,	34,	-1,	-1,	4,	-1,	25,	23,	-1,	26,	24|
8,	-1,	-1,	3,	-1,	7,	-1,	-1,	39,	-1,	11,	-1,	-1,	46,	-1,	15,	-1,	36,	49,	-1,	2,	-1,	-1,	9,	24,	-1,	-1,	25,	-1,	43,	14,	40,	-1,	-1,	-1,	-1,	-1,	22,	-1,	6,	-1,	-1,	1,	17,	-1,	-1,	34,	-1,	5|
-1,	15,	-1,	34,	14,	9,	23,	27,	32,	41,	-1,	45,	-1,	-1,	40,	-1,	-1,	-1,	-1,	-1,	1,	2,	-1,	-1,	-1,	7,	-1,	6,	35,	8,	20,	-1,	-1,	28,	42,	18,	11,	3,	10,	-1,	17,	43,	29,	-1,	-1,	31,	48,	39,	16|
10,	-1,	2,	-1,	29,	32,	39,	9,	-1,	-1,	-1,	-1,	19,	1,	-1,	20,	42,	37,	-1,	28,	31,	35,	43,	-1,	41,	33,	-1,	47,	-1,	4,	-1,	-1,	15,	-1,	-1,	5,	-1,	-1,	21,	24,	-1,	-1,	-1,	-1,	6,	-1,	49,	36,	-1|
-1,	43,	-1,	-1,	36,	12,	-1,	8,	-1,	-1,	14,	-1,	34,	-1,	-1,	5,	29,	35,	32,	-1,	47,	-1,	15,	13,	37,	-1,	10,	39,	6,	-1,	9,	27,	23,	44,	-1,	33,	48,	-1,	7,	16,	-1,	-1,	-1,	11,	2,	46,	20,	-1,	-1|
-1,	6,	-1,	42,	-1,	25,	17,	-1,	-1,	20,	22,	15,	-1,	10,	23,	19,	-1,	-1,	-1,	-1,	-1,	-1,	18,	-1,	27,	-1,	-1,	48,	-1,	33,	-1,	47,	-1,	7,	-1,	-1,	-1,	-1,	8,	-1,	-1,	-1,	28,	43,	40,	44,	3,	45,	-1|
41,	-1,	-1,	33,	-1,	42,	-1,	13,	24,	-1,	-1,	9,	17,	-1,	-1,	32,	-1,	-1,	-1,	26,	43,	27,	48,	-1,	-1,	25,	-1,	37,	-1,	10,	8,	21,	19,	-1,	-1,	29,	16,	-1,	-1,	-1,	-1,	6,	-1,	-1,	-1,	7,	35,	3,	-1|
-1,	28,	6,	31,	-1,	27,	18,	26,	37,	-1,	34,	21,	-1,	12,	-1,	35,	16,	-1,	-1,	36,	-1,	7,	-1,	39,	-1,	15,	42,	-1,	-1,	25,	-1,	-1,	-1,	-1,	48,	3,	40,	-1,	9,	32,	49,	-1,	45,	-1,	-1,	43,	47,	23,	-1|
13,	-1,	15,	-1,	23,	-1,	32,	-1,	-1,	2,	-1,	-1,	-1,	18,	-1,	1,	34,	22,	-1,	-1,	14,	9,	-1,	8,	36,	-1,	44,	-1,	24,	28,	-1,	33,	27,	-1,	-1,	-1,	43,	-1,	35,	-1,	4,	-1,	26,	5,	-1,	10,	16,	30,	48|
20,	29,	16,	-1,	45,	26,	19,	-1,	44,	6,	38,	-1,	-1,	-1,	-1,	18,	37,	-1,	-1,	30,	-1,	-1,	-1,	-1,	35,	47,	31,	-1,	40,	-1,	43,	-1,	12,	11,	-1,	46,	-1,	8,	-1,	42,	41,	-1,	-1,	-1,	-1,	-1,	-1,	-1,	49|
-1,	12,	-1,	21,	43,	48,	49,	-1,	27,	-1,	29,	8,	35,	32,	47,	9,	-1,	-1,	-1,	-1,	19,	10,	-1,	28,	30,	-1,	18,	-1,	4,	16,	15,	-1,	-1,	23,	-1,	1,	5,	36,	-1,	-1,	-1,	-1,	24,	25,	-1,	6,	37,	20,	-1|
11,	35,	-1,	-1,	-1,	-1,	-1,	-1,	-1,	-1,	-1,	1,	43,	19,	7,	-1,	10,	-1,	21,	-1,	27,	13,	32,	3,	38,	-1,	-1,	-1,	18,	-1,	2,	-1,	-1,	-1,	45,	-1,	26,	47,	-1,	23,	48,	15,	-1,	41,	44,	-1,	29,	42,	40|
2,	37,	-1,	-1,	39,	10,	-1,	3,	-1,	-1,	30,	-1,	-1,	40,	12,	8,	-1,	-1,	28,	-1,	-1,	-1,	45,	-1,	43,	26,	-1,	4,	-1,	-1,	-1,	41,	-1,	-1,	35,	-1,	31,	33,	-1,	-1,	27,	7,	21,	-1,	18,	15,	13,	-1,	38|
-1,	31,	-1,	48,	21,	-1,	-1,	-1,	-1,	38,	39,	-1,	45,	-1,	-1,	12,	-1,	44,	18,	-1,	-1,	-1,	10,	7,	19,	35,	-1,	-1,	41,	26,	-1,	-1,	8,	42,	-1,	2,	-1,	6,	14,	28,	32,	36,	30,	-1,	-1,	-1,	-1,	9,	-1|
30,	19,	-1,	6,	-1,	49,	13,	16,	-1,	27,	44,	-1,	33,	-1,	43,	-1,	-1,	-1,	8,	14,	37,	31,	-1,	-1,	-1,	-1,	48,	-1,	-1,	32,	-1,	-1,	-1,	36,	-1,	9,	-1,	21,	-1,	-1,	-1,	-1,	-1,	3,	-1,	-1,	39,	25,	-1|
-1,	-1,	18,	-1,	8,	-1,	-1,	2,	6,	-1,	-1,	-1,	12,	41,	17,	-1,	4,	-1,	-1,	-1,	36,	-1,	-1,	-1,	32,	-1,	-1,	-1,	48,	49,	-1,	-1,	7,	-1,	23,	-1,	39,	-1,	-1,	-1,	16,	25,	5,	-1,	-1,	-1,	-1,	24,	-1|
-1,	7,	36,	-1,	-1,	-1,	-1,	-1,	-1,	-1,	-1,	14,	13,	-1,	48,	-1,	-1,	-1,	20,	42,	21,	-1,	25,	5,	29,	-1,	9,	41,	-1,	-1,	-1,	3,	33,	-1,	-1,	-1,	-1,	17,	-1,	-1,	1,	37,	49,	-1,	11,	32,	-1,	-1,	6|
42,	-1,	-1,	-1,	47,	37,	15,	-1,	-1,	-1,	-1,	46,	-1,	26,	19,	7,	-1,	-1,	33,	-1,	28,	8,	-1,	-1,	-1,	-1,	-1,	49,	45,	-1,	-1,	14,	-1,	1,	-1,	10,	3,	5,	-1,	-1,	-1,	22,	-1,	29,	48,	-1,	-1,	-1,	23|
-1,	2,	23,	35,	12,	-1,	27,	-1,	-1,	-1,	4,	5,	48,	49,	30,	45,	-1,	-1,	-1,	-1,	-1,	-1,	-1,	14,	-1,	-1,	-1,	-1,	29,	39,	-1,	22,	9,	31,	-1,	-1,	8,	-1,	-1,	-1,	43,	47,	41,	26,	-1,	16,	-1,	44,	-1|
40,	-1,	32,	-1,	-1,	-1,	14,	28,	-1,	22,	18,	3,	-1,	-1,	-1,	-1,	-1,	11,	-1,	9,	-1,	-1,	42,	26,	-1,	-1,	-1,	-1,	17,	-1,	-1,	-1,	43,	25,	-1,	-1,	24,	48,	-1,	49,	-1,	31,	-1,	21,	20,	-1,	-1,	37,	10|
27,	-1,	-1,	20,	-1,	16,	-1,	35,	42,	-1,	43,	-1,	26,	13,	9,	11,	-1,	-1,	-1,	-1,	-1,	39,	-1,	10,	-1,	31,	-1,	-1,	-1,	14,	-1,	15,	48,	-1,	-1,	-1,	-1,	24,	32,	-1,	36,	-1,	44,	-1,	-1,	-1,	-1,	1,	-1|
23,	3,	-1,	-1,	-1,	-1,	11,	20,	8,	33,	6,	-1,	1,	25,	2,	-1,	-1,	29,	-1,	45,	-1,	-1,	16,	-1,	44,	43,	19,	-1,	5,	34,	49,	-1,	22,	35,	26,	47,	-1,	-1,	46,	17,	21,	13,	-1,	-1,	-1,	24,	32,	7,	9|
33,	-1,	37,	-1,	-1,	13,	-1,	24,	3,	-1,	45,	39,	30,	-1,	-1,	-1,	-1,	-1,	19,	-1,	-1,	36,	9,	48,	-1,	14,	35,	23,	38,	-1,	-1,	7,	25,	-1,	1,	26,	-1,	49,	-1,	10,	6,	18,	-1,	-1,	-1,	20,	-1,	43,	31|
-1,	-1,	-1,	30,	-1,	-1,	-1,	7,	-1,	40,	-1,	-1,	37,	11,	-1,	-1,	31,	-1,	26,	-1,	42,	-1,	13,	-1,	-1,	4,	-1,	-1,	-1,	29,	-1,	-1,	-1,	19,	9,	44,	-1,	-1,	2,	-1,	5,	48,	-1,	-1,	21,	-1,	18,	38,	-1|
-1,	-1,	14,	18,	-1,	-1,	-1,	-1,	38,	-1,	31,	44,	-1,	-1,	33,	17,	-1,	48,	23,	-1,	-1,	-1,	-1,	24,	-1,	1,	-1,	5,	-1,	6,	-1,	-1,	3,	39,	36,	42,	9,	20,	-1,	-1,	40,	-1,	25,	-1,	-1,	19,	-1,	-1,	29|
-1,	9,	-1,	-1,	31,	17,	34,	36,	48,	5,	27,	4,	-1,	-1,	39,	-1,	47,	-1,	-1,	-1,	-1,	45,	-1,	-1,	-1,	29,	37,	8,	33,	-1,	13,	42,	2,	20,	-1,	25,	22,	-1,	-1,	-1,	-1,	-1,	40,	30,	41,	-1,	15,	-1,	26|
-1,	-1,	-1,	-1,	-1,	15,	1,	-1,	-1,	34,	9,	-1,	23,	22,	28,	-1,	-1,	38,	16,	-1,	49,	25,	-1,	-1,	-1,	40,	3,	-1,	44,	-1,	-1,	43,	46,	27,	-1,	-1,	29,	-1,	-1,	-1,	7,	33,	-1,	-1,	14,	48,	5,	-1,	-1|
-1,	-1,	-1,	15,	49,	-1,	-1,	-1,	-1,	32,	-1,	16,	-1,	23,	10,	22,	-1,	-1,	41,	-1,	-1,	-1,	-1,	11,	4,	48,	13,	-1,	-1,	46,	-1,	28,	-1,	-1,	-1,	7,	42,	25,	-1,	-1,	20,	3,	-1,	-1,	27,	30,	-1,	-1,	2|
5,	-1,	20,	-1,	32,	19,	12,	-1,	-1,	-1,	47,	2,	24,	4,	-1,	-1,	-1,	-1,	-1,	-1,	-1,	-1,	26,	-1,	-1,	-1,	-1,	14,	-1,	1,	27,	17,	-1,	-1,	-1,	36,	18,	39,	37,	48,	15,	-1,	9,	-1,	-1,	11,	-1,	-1,	-1|
7,	18,	-1,	14,	-1,	36,	-1,	-1,	15,	-1,	-1,	17,	-1,	28,	-1,	43,	48,	-1,	1,	27,	-1,	19,	-1,	31,	9,	-1,	-1,	38,	-1,	37,	-1,	-1,	45,	-1,	-1,	49,	2,	13,	-1,	-1,	35,	-1,	-1,	-1,	-1,	-1,	-1,	-1,	25|
43,	48,	35,	39,	-1,	-1,	-1,	12,	-1,	-1,	-1,	18,	40,	20,	-1,	-1,	49,	-1,	-1,	47,	5,	-1,	-1,	-1,	25,	-1,	-1,	-1,	13,	23,	-1,	8,	-1,	4,	-1,	-1,	-1,	-1,	30,	-1,	38,	-1,	-1,	46,	28,	-1,	7,	-1,	-1|
-1,	16,	9,	13,	-1,	44,	-1,	-1,	-1,	-1,	-1,	-1,	-1,	3,	-1,	23,	19,	-1,	4,	-1,	-1,	-1,	-1,	-1,	6,	30,	39,	27,	15,	-1,	35,	18,	-1,	5,	34,	-1,	-1,	-1,	1,	-1,	-1,	8,	42,	49,	-1,	36,	24,	-1,	20|
46,	30,	47,	-1,	3,	21,	38,	45,	-1,	-1,	-1,	6,	8,	27,	-1,	-1,	-1,	7,	25,	34,	-1,	15,	20,	29,	-1,	32,	43,	-1,	-1,	19,	11,	48,	49,	-1,	39,	41,	33,	44,	-1,	40,	12,	-1,	-1,	31,	-1,	-1,	17,	14,	4|
-1,	40,	-1,	-1,	-1,	-1,	4,	22,	43,	-1,	-1,	34,	5,	-1,	15,	-1,	11,	28,	-1,	2,	20,	18,	-1,	46,	45,	49,	-1,	-1,	-1,	-1,	42,	-1,	30,	32,	-1,	-1,	10,	-1,	-1,	-1,	-1,	26,	-1,	-1,	16,	-1,	-1,	13,	12|
-1,	-1,	-1,	25,	48,	46,	45,	-1,	-1,	28,	10,	-1,	-1,	-1,	-1,	-1,	-1,	-1,	22,	-1,	39,	-1,	4,	-1,	-1,	13,	17,	-1,	32,	-1,	-1,	-1,	-1,	33,	44,	-1,	34,	23,	-1,	-1,	3,	21,	-1,	24,	-1,	26,	30,	-1,	-1|
6,	13,	33,	-1,	10,	20,	-1,	23,	40,	16,	19,	24,	-1,	-1,	-1,	26,	43,	41,	48,	-1,	29,	5,	30,	37,	-1,	-1,	-1,	-1,	8,	-1,	25,	45,	-1,	38,	-1,	-1,	47,	32,	27,	-1,	-1,	-1,	2,	-1,	39,	42,	-1,	17,	-1|
-1,	42,	-1,	26,	-1,	22,	7,	-1,	29,	-1,	12,	-1,	-1,	-1,	31,	46,	-1,	-1,	-1,	-1,	34,	-1,	6,	-1,	-1,	-1,	32,	-1,	37,	40,	-1,	19,	35,	-1,	41,	4,	36,	-1,	-1,	25,	24,	-1,	11,	13,	45,	21,	23,	-1,	14|
12,	39,	-1,	5,	18,	23,	-1,	-1,	-1,	-1,	20,	-1,	-1,	9,	24,	-1,	-1,	-1,	15,	7,	8,	-1,	-1,	25,	46,	27,	1,	-1,	-1,	36,	29,	-1,	-1,	-1,	-1,	-1,	17,	-1,	48,	-1,	-1,	-1,	19,	6,	38,	-1,	10,	-1,	-1|
-1,	44,	11,	29,	15,	40,	-1,	4,	26,	3,	-1,	-1,	6,	-1,	-1,	-1,	27,	47,	30,	37,	23,	-1,	14,	19,	-1,	8,	-1,	-1,	-1,	-1,	17,	2,	39,	-1,	-1,	-1,	1,	7,	42,	-1,	-1,	-1,	-1,	18,	-1,	-1,	25,	-1,	41|
-1,	21,	4,	-1,	35,	14,	37,	-1,	-1,	1,	25,	-1,	41,	48,	-1,	-1,	-1,	45,	-1,	12,	-1,	-1,	39,	23,	28,	2,	40,	26,	11,	-1,	7,	-1,	13,	22,	-1,	16,	-1,	29,	-1,	-1,	8,	-1,	-1,	-1,	-1,	-1,	-1,	-1,	27|
19,	-1,	-1,	-1,	2,	-1,	43,	-1,	46,	36,	-1,	38,	-1,	-1,	-1,	-1,	13,	42,	17,	11,	40,	-1,	21,	-1,	3,	-1,	-1,	29,	27,	20,	23,	-1,	10,	-1,	-1,	39,	37,	26,	-1,	-1,	9,	-1,	-1,	-1,	-1,	-1,	33,	15,	1|];
