benchmarks_LEQ/INST_49x49/50/inst49x49_50_56.txt
7
1
14	-1	46	45	-1	-1	16	1	4	-1	-1	-1	28	34	-1	29	15	10	-1	-1	-1	42	33	-1	-1	21	24	-1	-1	13	-1	39	38	18	-1	-1	25	40	3	-1	-1	44	27	48	-1	-1	26	-1	35
-1	-1	24	32	-1	-1	5	-1	19	30	2	36	44	31	-1	16	26	-1	-1	-1	-1	-1	-1	35	-1	45	-1	15	-1	47	3	10	28	-1	-1	-1	20	-1	6	8	46	17	-1	-1	49	25	-1	4	-1
4	-1	-1	-1	-1	43	21	37	5	46	8	22	-1	-1	-1	-1	-1	20	24	48	6	40	41	44	-1	-1	-1	-1	42	17	33	-1	11	15	16	-1	27	10	45	12	26	-1	-1	-1	1	28	-1	32	-1
-1	-1	12	37	26	18	28	43	-1	-1	13	-1	9	-1	25	-1	44	32	-1	-1	-1	-1	8	17	-1	-1	34	-1	-1	-1	-1	-1	-1	-1	2	-1	-1	-1	39	-1	-1	-1	16	20	-1	-1	19	-1	42
-1	-1	-1	-1	-1	3	-1	-1	14	-1	7	-1	-1	-1	-1	-1	41	-1	-1	-1	-1	-1	-1	16	2	37	26	-1	-1	-1	-1	-1	20	45	-1	-1	15	43	-1	5	-1	4	6	23	-1	8	40	18	-1
-1	-1	22	7	-1	39	-1	-1	-1	-1	-1	12	-1	38	-1	-1	3	19	45	-1	-1	1	31	-1	5	-1	11	32	14	-1	-1	34	26	8	-1	24	-1	28	-1	-1	42	2	-1	-1	9	41	44	29	43
-1	-1	38	27	44	2	-1	-1	45	26	-1	25	3	-1	-1	28	14	-1	-1	-1	-1	-1	36	43	-1	-1	23	13	7	41	6	-1	-1	-1	-1	21	-1	-1	-1	-1	18	-1	47	-1	-1	39	-1	-1	17
21	-1	13	-1	-1	-1	-1	6	36	-1	-1	43	18	44	34	-1	-1	24	-1	17	-1	-1	40	-1	-1	-1	-1	-1	-1	2	-1	32	-1	10	-1	-1	23	4	49	-1	-1	-1	-1	-1	42	-1	-1	-1	15
-1	5	44	47	-1	38	-1	-1	12	7	3	-1	-1	42	22	-1	8	-1	6	-1	10	14	29	-1	17	19	20	31	-1	45	-1	11	1	16	13	-1	-1	-1	28	-1	-1	-1	-1	32	-1	-1	27	26	-1
8	27	-1	3	-1	7	-1	29	-1	13	11	30	-1	46	-1	-1	33	-1	49	-1	2	-1	44	9	24	-1	21	25	-1	43	14	-1	-1	48	38	-1	41	22	47	6	45	42	1	17	10	-1	-1	-1	5
26	-1	-1	34	-1	-1	23	27	-1	-1	33	45	-1	47	-1	44	30	21	-1	25	1	-1	-1	-1	22	-1	46	-1	-1	8	20	-1	24	28	42	18	11	3	10	36	-1	43	29	37	13	-1	-1	-1	16
10	-1	2	-1	29	-1	-1	9	16	-1	48	-1	-1	-1	-1	-1	-1	37	-1	28	31	-1	-1	-1	41	33	8	-1	-1	-1	26	25	15	17	3	-1	-1	46	21	24	-1	12	14	-1	-1	38	-1	-1	-1
1	-1	40	-1	-1	-1	-1	8	-1	-1	14	-1	-1	17	-1	-1	29	35	-1	-1	-1	-1	15	-1	-1	-1	-1	-1	-1	21	-1	27	23	44	18	33	48	38	7	-1	-1	-1	-1	11	2	46	-1	41	19
24	6	41	-1	4	25	-1	-1	-1	20	22	15	-1	-1	-1	-1	-1	39	11	38	-1	-1	-1	49	-1	16	36	-1	-1	-1	-1	-1	-1	7	-1	37	32	14	-1	-1	29	-1	28	43	-1	44	3	-1	-1
41	14	-1	33	30	42	-1	13	-1	-1	-1	9	-1	-1	38	32	45	4	-1	-1	43	-1	-1	-1	-1	25	5	37	-1	-1	8	-1	19	-1	47	-1	-1	-1	-1	-1	-1	-1	46	2	-1	-1	35	-1	11
22	-1	6	31	24	-1	18	-1	37	-1	-1	-1	20	12	-1	35	16	33	-1	-1	41	-1	19	39	14	-1	-1	-1	46	25	38	44	-1	-1	-1	-1	40	-1	9	32	49	-1	45	1	17	-1	-1	23	8
13	-1	-1	46	23	47	32	41	-1	-1	42	-1	31	-1	29	-1	34	-1	-1	49	-1	9	17	8	-1	11	-1	-1	-1	28	-1	-1	-1	-1	-1	-1	-1	37	-1	-1	-1	-1	-1	5	12	10	-1	30	48
20	-1	16	4	-1	-1	19	5	44	6	-1	23	-1	-1	-1	18	37	15	2	30	-1	33	-1	-1	35	-1	-1	-1	-1	-1	-1	9	12	11	-1	-1	13	-1	25	42	-1	-1	-1	22	-1	-1	-1	27	49
3	-1	-1	-1	43	48	-1	11	-1	45	-1	-1	-1	32	-1	9	-1	13	-1	44	-1	-1	46	28	30	41	18	40	-1	-1	-1	-1	34	23	31	-1	-1	-1	38	-1	22	-1	-1	25	-1	6	37	20	39
-1	-1	5	17	-1	8	-1	46	33	-1	16	1	43	19	7	24	10	6	-1	-1	27	-1	-1	3	38	34	-1	-1	18	-1	2	-1	36	-1	45	-1	-1	47	-1	-1	48	-1	31	41	44	4	-1	42	-1
-1	37	-1	-1	39	-1	44	-1	22	-1	-1	48	-1	-1	12	8	-1	23	28	20	25	-1	-1	6	43	26	-1	4	-1	-1	32	-1	42	-1	-1	17	-1	33	24	11	-1	7	21	-1	-1	-1	13	-1	-1
-1	-1	29	48	-1	-1	-1	25	-1	38	39	20	-1	37	49	-1	23	44	18	24	16	17	10	7	19	35	15	43	41	26	40	13	-1	-1	11	2	-1	6	14	-1	32	-1	-1	-1	4	-1	-1	-1	-1
-1	-1	26	6	46	-1	-1	-1	-1	27	44	-1	-1	-1	-1	-1	-1	5	-1	14	37	31	-1	2	-1	-1	48	24	-1	32	34	-1	4	-1	10	9	-1	-1	41	-1	-1	38	-1	-1	15	-1	-1	25	-1
9	-1	-1	43	-1	-1	22	-1	6	31	-1	-1	12	-1	17	-1	4	34	29	-1	36	44	-1	21	-1	3	-1	-1	48	49	-1	-1	7	-1	-1	35	39	42	26	33	16	25	5	-1	19	-1	14	-1	47
39	-1	36	28	16	-1	-1	-1	30	-1	-1	14	13	-1	-1	31	-1	-1	20	42	-1	23	-1	5	29	-1	-1	-1	-1	44	18	-1	-1	-1	-1	27	-1	-1	34	-1	-1	-1	49	-1	-1	-1	-1	-1	6
42	11	-1	-1	47	37	-1	17	9	-1	24	46	-1	-1	19	-1	40	2	33	-1	-1	8	12	-1	-1	39	4	-1	-1	-1	16	-1	21	1	27	-1	-1	5	44	20	-1	22	-1	-1	48	34	-1	-1	23
17	2	23	35	-1	-1	-1	19	-1	-1	-1	5	48	49	-1	45	25	-1	38	3	-1	37	-1	-1	33	-1	6	11	29	39	24	22	-1	31	20	40	-1	15	13	-1	-1	-1	-1	-1	-1	-1	42	44	-1
-1	-1	32	-1	-1	33	-1	-1	-1	-1	18	3	36	-1	41	27	39	-1	-1	9	35	47	42	-1	1	-1	-1	45	-1	-1	30	-1	43	-1	-1	-1	24	-1	-1	-1	-1	31	-1	21	20	-1	12	37	-1
27	46	45	-1	-1	-1	-1	-1	-1	-1	43	19	26	-1	-1	11	-1	25	37	18	-1	-1	-1	-1	21	31	-1	-1	-1	14	-1	15	-1	40	-1	8	-1	-1	32	-1	-1	-1	44	28	-1	-1	2	1	33
-1	3	-1	38	41	-1	-1	20	8	-1	-1	10	-1	25	-1	40	-1	-1	14	-1	15	-1	-1	42	-1	43	19	18	-1	-1	49	31	-1	35	-1	47	-1	27	-1	17	-1	-1	12	-1	37	24	-1	-1	9
33	-1	37	-1	42	-1	29	24	3	17	45	39	-1	2	5	41	21	-1	19	22	-1	-1	-1	-1	-1	14	35	-1	-1	11	28	7	25	47	1	26	-1	49	15	-1	6	18	34	16	8	20	46	43	31
-1	24	43	-1	-1	-1	-1	7	-1	-1	32	-1	37	-1	-1	-1	-1	1	26	8	42	6	13	-1	15	-1	-1	33	16	29	-1	23	-1	-1	-1	-1	-1	-1	2	-1	-1	-1	3	10	-1	27	-1	38	36
-1	-1	-1	-1	7	-1	8	15	-1	12	-1	-1	-1	-1	-1	-1	-1	48	23	-1	-1	-1	-1	24	34	-1	27	5	10	6	45	37	3	-1	-1	42	-1	20	-1	-1	-1	-1	-1	-1	22	19	-1	-1	29
-1	9	-1	-1	-1	-1	-1	36	48	-1	-1	-1	-1	14	39	-1	-1	3	43	-1	-1	-1	28	-1	-1	29	-1	-1	33	-1	13	42	2	20	-1	-1	22	-1	11	1	19	-1	40	30	41	49	15	-1	-1
-1	-1	39	2	-1	-1	-1	-1	-1	-1	9	-1	-1	22	-1	4	20	-1	-1	-1	49	-1	11	32	-1	-1	-1	17	-1	24	-1	-1	46	-1	-1	30	29	-1	31	37	7	-1	13	42	14	48	-1	6	45
-1	1	8	15	-1	-1	26	-1	-1	-1	-1	-1	-1	-1	10	22	-1	-1	-1	33	12	-1	37	-1	4	48	-1	35	-1	46	-1	-1	44	9	43	7	-1	-1	-1	-1	-1	3	18	-1	-1	30	6	5	2
-1	25	20	-1	-1	-1	-1	49	10	-1	-1	-1	24	4	-1	-1	35	-1	44	-1	-1	34	-1	40	-1	22	-1	14	31	1	27	-1	-1	-1	7	-1	-1	39	37	48	-1	-1	-1	-1	-1	-1	45	33	3
7	18	-1	14	-1	36	42	-1	-1	44	-1	-1	-1	28	-1	43	48	8	1	-1	26	-1	-1	31	9	-1	-1	-1	-1	-1	22	20	45	29	-1	-1	-1	-1	-1	46	-1	24	39	-1	32	47	21	40	-1
-1	48	-1	39	11	41	33	-1	1	-1	-1	18	-1	20	6	37	-1	-1	-1	-1	-1	-1	-1	36	25	17	2	-1	-1	-1	-1	-1	16	-1	-1	-1	-1	-1	30	-1	38	32	15	46	-1	-1	-1	-1	-1
37	16	-1	-1	28	44	2	38	7	-1	-1	-1	-1	3	14	-1	-1	17	-1	32	-1	-1	-1	-1	-1	30	-1	27	-1	-1	-1	-1	-1	-1	-1	-1	-1	11	-1	43	-1	8	42	49	-1	36	-1	10	20
-1	30	47	22	3	21	38	45	-1	9	37	6	-1	-1	36	42	-1	-1	25	-1	18	-1	20	-1	-1	-1	-1	-1	2	19	11	48	-1	-1	-1	41	33	44	5	-1	12	-1	-1	31	35	1	17	14	-1
-1	40	-1	-1	27	29	4	22	-1	21	-1	-1	5	33	15	-1	-1	28	39	-1	20	-1	1	46	45	-1	7	-1	-1	38	42	-1	30	-1	-1	6	10	-1	23	-1	47	-1	-1	-1	-1	37	41	-1	12
38	-1	27	-1	-1	-1	45	-1	-1	28	-1	31	7	-1	-1	49	-1	-1	22	-1	39	11	-1	15	42	-1	17	36	32	-1	1	-1	-1	-1	-1	12	34	-1	40	41	3	-1	-1	-1	29	-1	30	-1	-1
6	13	-1	1	10	-1	36	23	40	16	19	-1	-1	-1	4	-1	43	41	48	21	29	5	-1	37	-1	12	22	7	-1	3	25	45	-1	-1	46	-1	-1	-1	27	-1	-1	-1	2	44	39	-1	-1	17	34
-1	42	49	26	-1	22	-1	-1	-1	8	-1	-1	-1	-1	31	-1	5	-1	3	-1	34	-1	-1	-1	18	44	32	-1	-1	40	-1	19	-1	43	-1	4	36	-1	-1	-1	24	-1	11	13	-1	21	23	-1	14
-1	-1	-1	5	-1	-1	-1	-1	-1	-1	20	-1	42	-1	24	2	28	14	-1	-1	-1	-1	35	-1	-1	-1	1	-1	26	36	-1	-1	47	-1	-1	43	17	-1	48	22	44	-1	19	-1	38	40	10	-1	32
-1	-1	-1	-1	-1	40	-1	4	26	-1	-1	-1	6	45	-1	36	27	47	30	37	-1	-1	14	19	16	8	33	9	-1	31	-1	2	39	34	-1	-1	1	7	-1	-1	10	5	20	-1	46	22	-1	48	41
32	21	-1	-1	35	14	37	34	17	-1	-1	-1	-1	48	44	33	-1	45	-1	-1	-1	20	39	23	28	2	40	-1	-1	-1	7	-1	13	22	-1	16	6	-1	-1	30	-1	-1	43	36	-1	-1	-1	49	27
-1	34	-1	-1	-1	31	43	44	46	-1	-1	-1	22	-1	32	-1	13	-1	17	11	-1	-1	21	-1	-1	24	-1	-1	27	-1	-1	16	-1	6	28	39	37	-1	-1	-1	9	-1	-1	4	-1	-1	33	-1	-1
49 
5 15 49 49
1 48 3 17
29 40 4 45
43 23 34 12
37 1 7 20
34 16 4 14
30 48 46 20
48 41 41 13
29 15 13 31
6 43 45 28
32 14 38 13
5 18 48 20
20 22 47 36
2 27 8 16
7 1 47 5
17 47 28 27
6 11 32 33
47 44 46 5
35 5 3 4
44 6 23 26
43 42 34 3
39 48 17 18
38 23 36 14
36 22 19 43
47 47 36 38
15 20 33 2
35 34 6 24
22 40 8 26
36 40 46 31
22 43 5 7
42 1 33 11
37 5 36 10
4 12 7 44
7 48 38 44
7 19 25 10
18 14 19 38
6 15 24 31
3 47 31 29
2 25 12 7
39 13 36 18
18 41 29 31
5 3 16 27
39 1 18 31
39 49 15 40
25 44 26 29
18 36 30 39
19 15 43 2
18 21 45 31
7 18 13 4
